c Random Network
p min 10 20
n 1 1
n 10 -1
c Transformed from a max-flow problem.
a 	 4	2	0	27	0
a 	 4	3	0	24	0
a 	 8	10	0	30	0
a 	 2	10	0	10	0
a 	 2	3	0	43	0
a 	 2	1	0	13	0
a 	 1	6	0	25	0
a 	 9	2	0	43	0
a 	 10	2	0	26	0
a 	 3	8	0	33	0
a 	 5	8	0	27	0
a 	 1	3	0	38	0
a 	 4	7	0	1	0
a 	 10	8	0	19	0
a 	 9	4	0	29	0
a 	 3	6	0	34	0
a 	 1	2	0	13	0
a 	 3	1	0	28	0
a 	 4	9	0	23	0
a 	 9	3	0	46	0
